45445.59
76 77 78 81 80 83 79 82 85 88 89 84 86 87 90 93 92 95 91 94 97 100 101 96 98 99 102 105 104 0 106 103 1 52 53 51 50 2 47 45 48 49 46 44 41 43 42 3 40 4 37 35 38 39 36 34 33 32 5 30 31 29 28 27 6 25 26 24 23 22 7 20 21 18 19 8 16 17 15 14 11 13 10 12 9 55 58 59 54 56 57 61 60 62 63 64 65 66 67 70 71 68 69 72 75 74 73